; benchmark generated from python API
(set-info :status unknown)
(declare-fun x_epoch () Int)
(declare-fun y_epoch () Int)
(declare-fun x_plus_epoch () Int)
(declare-fun x_plus_month () Int)
(declare-fun x_plus_year () Int)
(declare-fun x_plus_day () Int)
(declare-fun y_plus_epoch () Int)
(declare-fun y_plus_month () Int)
(declare-fun y_plus_year () Int)
(declare-fun y_plus_day () Int)
(assert
 (>= x_epoch (- 36584)))
(assert
 (<= x_epoch 36829))
(assert
 (>= y_epoch (- 36584)))
(assert
 (<= y_epoch 36829))
(assert
 (= x_epoch 7275))
(assert
 (= y_epoch 6910))
(assert
 (>= x_plus_epoch (- 36584)))
(assert
 (<= x_plus_epoch 36829))
(assert
 (let (($x2253 (= x_plus_month 11)))
 (let (($x683 (= x_plus_month 9)))
 (let (($x662 (= x_plus_month 6)))
 (let (($x219 (= x_plus_month 4)))
 (let ((?x569 (ite (or $x219 $x662 $x683 $x2253) 30 31)))
 (let (($x1863 (= (mod x_plus_year 400) 0)))
 (let (($x2371 (= (mod x_plus_year 4) 0)))
 (let (($x3443 (or (and $x2371 (and (distinct (mod x_plus_year 100) 0) true)) $x1863)))
 (let (($x2464 (= x_plus_month 2)))
 (let (($x1398 (>= x_plus_day 1)))
 (let (($x624 (<= x_plus_month 12)))
 (let (($x2904 (>= x_plus_month 1)))
 (let (($x664 (<= x_plus_year 2100)))
 (let (($x502 (>= x_plus_year 1900)))
 (and $x502 $x664 $x2904 $x624 $x1398 (<= x_plus_day (ite $x2464 (ite $x3443 29 28) ?x569))))))))))))))))))
(assert
 (let (($x1863 (= (mod x_plus_year 400) 0)))
 (let (($x2371 (= (mod x_plus_year 4) 0)))
 (let (($x3443 (or (and $x2371 (and (distinct (mod x_plus_year 100) 0) true)) $x1863)))
 (let ((?x616 (ite (= 2 x_plus_month) (ite $x3443 31 31) (ite (= 1 x_plus_month) (ite $x3443 0 0) 0))))
 (let ((?x760 (ite (= 4 x_plus_month) (ite $x3443 91 90) (ite (= 3 x_plus_month) (ite $x3443 60 59) ?x616))))
 (let ((?x3390 (ite (= 6 x_plus_month) (ite $x3443 152 151) (ite (= 5 x_plus_month) (ite $x3443 121 120) ?x760))))
 (let ((?x408 (ite (= 8 x_plus_month) (ite $x3443 213 212) (ite (= 7 x_plus_month) (ite $x3443 182 181) ?x3390))))
 (let ((?x602 (ite (= 10 x_plus_month) (ite $x3443 274 273) (ite (= 9 x_plus_month) (ite $x3443 244 243) ?x408))))
 (let ((?x290 (ite (= 12 x_plus_month) (ite $x3443 335 334) (ite (= 11 x_plus_month) (ite $x3443 305 304) ?x602))))
 (let ((?x3024 (+ (* 365 (- x_plus_year 1)) (div (- x_plus_year 1) 4))))
 (let ((?x1993 (+ (- ?x3024 (div (- x_plus_year 1) 100)) (div (- x_plus_year 1) 400))))
 (= x_plus_epoch (- (+ (+ ?x1993 ?x290) (- x_plus_day 1)) 730179))))))))))))))
(assert
 (let ((?x730 (+ x_epoch 730179)))
 (let ((?x557 (mod ?x730 146097)))
 (let ((?x512 (div ?x557 36524)))
 (let ((?x218 (ite (<= 4 ?x512) 3 ?x512)))
 (let ((?x685 (- ?x557 (* ?x218 36524))))
 (let ((?x414 (mod ?x685 1461)))
 (let ((?x263 (div ?x414 365)))
 (let ((?x118 (ite (<= 4 ?x263) 3 ?x263)))
 (let ((?x410 (+ (+ (* (div ?x730 146097) 400) (* ?x218 100)) (* (div ?x685 1461) 4))))
 (let ((?x98 (+ (+ ?x410 ?x118) 1)))
 (let (($x339 (or (and (= (mod ?x98 4) 0) (and (distinct (mod ?x98 100) 0) true)) (= (mod ?x98 400) 0))))
 (let ((?x406 (- ?x414 (* ?x118 365))))
 (let ((?x465 (ite $x339 31 31)))
 (let (($x463 (>= ?x406 ?x465)))
 (let ((?x645 (ite $x463 (+ (- ?x406 ?x465) 1) (+ (- ?x406 (ite $x339 0 0)) 1))))
 (let ((?x729 (ite $x339 60 59)))
 (let (($x810 (>= ?x406 ?x729)))
 (let ((?x435 (ite $x339 91 90)))
 (let (($x673 (>= ?x406 ?x435)))
 (let ((?x701 (ite $x673 (+ (- ?x406 ?x435) 1) (ite $x810 (+ (- ?x406 ?x729) 1) ?x645))))
 (let ((?x1415 (ite $x339 121 120)))
 (let (($x451 (>= ?x406 ?x1415)))
 (let ((?x208 (ite $x339 152 151)))
 (let (($x325 (>= ?x406 ?x208)))
 (let ((?x175 (ite $x325 (+ (- ?x406 ?x208) 1) (ite $x451 (+ (- ?x406 ?x1415) 1) ?x701))))
 (let ((?x363 (ite $x339 182 181)))
 (let (($x320 (>= ?x406 ?x363)))
 (let ((?x508 (ite $x339 213 212)))
 (let (($x120 (>= ?x406 ?x508)))
 (let ((?x541 (ite $x120 (+ (- ?x406 ?x508) 1) (ite $x320 (+ (- ?x406 ?x363) 1) ?x175))))
 (let ((?x738 (ite $x339 244 243)))
 (let (($x434 (>= ?x406 ?x738)))
 (let ((?x452 (ite $x339 274 273)))
 (let (($x1015 (>= ?x406 ?x452)))
 (let ((?x532 (ite $x1015 (+ (- ?x406 ?x452) 1) (ite $x434 (+ (- ?x406 ?x738) 1) ?x541))))
 (let ((?x134 (ite $x339 305 304)))
 (let (($x272 (>= ?x406 ?x134)))
 (let ((?x758 (ite $x339 335 334)))
 (let (($x692 (>= ?x406 ?x758)))
 (let ((?x2113 (ite $x692 (+ (- ?x406 ?x758) 1) (ite $x272 (+ (- ?x406 ?x134) 1) ?x532))))
 (let ((?x2599 (+ (* 0 12) 1)))
 (let ((?x250 (ite $x451 5 (ite $x673 4 (ite $x810 3 (ite $x463 2 1))))))
 (let ((?x2483 (ite $x434 9 (ite $x120 8 (ite $x320 7 (ite $x325 6 ?x250))))))
 (let ((?x516 (ite $x692 12 (ite $x272 11 (ite $x1015 10 ?x2483)))))
 (let ((?x524 (+ ?x516 ?x2599)))
 (let ((?x500 (- ?x524 1)))
 (let ((?x241 (+ (mod ?x500 12) 1)))
 (let ((?x523 (ite (or (= ?x241 4) (= ?x241 6) (= ?x241 9) (= ?x241 11)) 30 31)))
 (let (($x2372 (and (= (mod (+ ?x98 (+ 0 (div ?x500 12))) 4) 0) (and (distinct (mod (+ ?x98 (+ 0 (div ?x500 12))) 100) 0) true))))
 (let (($x445 (or $x2372 (= (mod (+ ?x98 (+ 0 (div ?x500 12))) 400) 0))))
 (let ((?x663 (ite (= ?x241 2) (ite $x445 29 28) ?x523)))
 (let ((?x194 (ite (> 1 ?x2113) 1 (ite (> ?x2113 ?x663) ?x663 ?x2113))))
 (let ((?x1252 (ite (> 1 ?x194) 1 (ite (> ?x194 ?x663) ?x663 ?x194))))
 (let ((?x1712 (ite (= 2 ?x241) (ite $x445 31 31) (ite (= 1 ?x241) (ite $x445 0 0) 0))))
 (let ((?x2756 (ite (= 4 ?x241) (ite $x445 91 90) (ite (= 3 ?x241) (ite $x445 60 59) ?x1712))))
 (let ((?x650 (ite (= 6 ?x241) (ite $x445 152 151) (ite (= 5 ?x241) (ite $x445 121 120) ?x2756))))
 (let ((?x1215 (ite (= 8 ?x241) (ite $x445 213 212) (ite (= 7 ?x241) (ite $x445 182 181) ?x650))))
 (let ((?x1536 (ite (= 10 ?x241) (ite $x445 274 273) (ite (= 9 ?x241) (ite $x445 244 243) ?x1215))))
 (let ((?x2958 (ite (= 12 ?x241) (ite $x445 335 334) (ite (= 11 ?x241) (ite $x445 305 304) ?x1536))))
 (let ((?x264 (+ (* 365 (- (+ ?x98 (+ 0 (div ?x500 12))) 1)) (div (- (+ ?x98 (+ 0 (div ?x500 12))) 1) 4))))
 (let ((?x2374 (+ (- ?x264 (div (- (+ ?x98 (+ 0 (div ?x500 12))) 1) 100)) (div (- (+ ?x98 (+ 0 (div ?x500 12))) 1) 400))))
 (let ((?x260 (+ (+ (- (+ (+ ?x2374 ?x2958) (- ?x1252 1)) 730179) 0) 730179)))
 (let ((?x1900 (mod ?x260 146097)))
 (let ((?x2534 (div ?x1900 36524)))
 (let ((?x1277 (ite (<= 4 ?x2534) 3 ?x2534)))
 (let ((?x268 (- ?x1900 (* ?x1277 36524))))
 (let ((?x367 (mod ?x268 1461)))
 (let ((?x440 (div ?x367 365)))
 (let ((?x3332 (ite (<= 4 ?x440) 3 ?x440)))
 (let ((?x198 (+ (+ (* (div ?x260 146097) 400) (* ?x1277 100)) (* (div ?x268 1461) 4))))
 (let ((?x359 (+ (+ ?x198 ?x3332) 1)))
 (let ((?x637 (+ 0 (div ?x500 12))))
 (let ((?x267 (+ ?x98 ?x637)))
 (let (($x449 (= 0 0)))
 (let ((?x489 (ite $x449 ?x267 ?x359)))
 (= x_plus_year ?x489)))))))))))))))))))))))))))))))))))))))))))))))))))))))))))))))))))))))))))))
(assert
 (let ((?x730 (+ x_epoch 730179)))
 (let ((?x557 (mod ?x730 146097)))
 (let ((?x512 (div ?x557 36524)))
 (let ((?x218 (ite (<= 4 ?x512) 3 ?x512)))
 (let ((?x685 (- ?x557 (* ?x218 36524))))
 (let ((?x414 (mod ?x685 1461)))
 (let ((?x263 (div ?x414 365)))
 (let ((?x118 (ite (<= 4 ?x263) 3 ?x263)))
 (let ((?x410 (+ (+ (* (div ?x730 146097) 400) (* ?x218 100)) (* (div ?x685 1461) 4))))
 (let ((?x98 (+ (+ ?x410 ?x118) 1)))
 (let (($x339 (or (and (= (mod ?x98 4) 0) (and (distinct (mod ?x98 100) 0) true)) (= (mod ?x98 400) 0))))
 (let ((?x406 (- ?x414 (* ?x118 365))))
 (let ((?x465 (ite $x339 31 31)))
 (let (($x463 (>= ?x406 ?x465)))
 (let ((?x645 (ite $x463 (+ (- ?x406 ?x465) 1) (+ (- ?x406 (ite $x339 0 0)) 1))))
 (let ((?x729 (ite $x339 60 59)))
 (let (($x810 (>= ?x406 ?x729)))
 (let ((?x435 (ite $x339 91 90)))
 (let (($x673 (>= ?x406 ?x435)))
 (let ((?x701 (ite $x673 (+ (- ?x406 ?x435) 1) (ite $x810 (+ (- ?x406 ?x729) 1) ?x645))))
 (let ((?x1415 (ite $x339 121 120)))
 (let (($x451 (>= ?x406 ?x1415)))
 (let ((?x208 (ite $x339 152 151)))
 (let (($x325 (>= ?x406 ?x208)))
 (let ((?x175 (ite $x325 (+ (- ?x406 ?x208) 1) (ite $x451 (+ (- ?x406 ?x1415) 1) ?x701))))
 (let ((?x363 (ite $x339 182 181)))
 (let (($x320 (>= ?x406 ?x363)))
 (let ((?x508 (ite $x339 213 212)))
 (let (($x120 (>= ?x406 ?x508)))
 (let ((?x541 (ite $x120 (+ (- ?x406 ?x508) 1) (ite $x320 (+ (- ?x406 ?x363) 1) ?x175))))
 (let ((?x738 (ite $x339 244 243)))
 (let (($x434 (>= ?x406 ?x738)))
 (let ((?x452 (ite $x339 274 273)))
 (let (($x1015 (>= ?x406 ?x452)))
 (let ((?x532 (ite $x1015 (+ (- ?x406 ?x452) 1) (ite $x434 (+ (- ?x406 ?x738) 1) ?x541))))
 (let ((?x134 (ite $x339 305 304)))
 (let (($x272 (>= ?x406 ?x134)))
 (let ((?x758 (ite $x339 335 334)))
 (let (($x692 (>= ?x406 ?x758)))
 (let ((?x2113 (ite $x692 (+ (- ?x406 ?x758) 1) (ite $x272 (+ (- ?x406 ?x134) 1) ?x532))))
 (let ((?x2599 (+ (* 0 12) 1)))
 (let ((?x250 (ite $x451 5 (ite $x673 4 (ite $x810 3 (ite $x463 2 1))))))
 (let ((?x2483 (ite $x434 9 (ite $x120 8 (ite $x320 7 (ite $x325 6 ?x250))))))
 (let ((?x516 (ite $x692 12 (ite $x272 11 (ite $x1015 10 ?x2483)))))
 (let ((?x524 (+ ?x516 ?x2599)))
 (let ((?x500 (- ?x524 1)))
 (let ((?x241 (+ (mod ?x500 12) 1)))
 (let ((?x523 (ite (or (= ?x241 4) (= ?x241 6) (= ?x241 9) (= ?x241 11)) 30 31)))
 (let (($x2372 (and (= (mod (+ ?x98 (+ 0 (div ?x500 12))) 4) 0) (and (distinct (mod (+ ?x98 (+ 0 (div ?x500 12))) 100) 0) true))))
 (let (($x445 (or $x2372 (= (mod (+ ?x98 (+ 0 (div ?x500 12))) 400) 0))))
 (let ((?x663 (ite (= ?x241 2) (ite $x445 29 28) ?x523)))
 (let ((?x194 (ite (> 1 ?x2113) 1 (ite (> ?x2113 ?x663) ?x663 ?x2113))))
 (let ((?x1252 (ite (> 1 ?x194) 1 (ite (> ?x194 ?x663) ?x663 ?x194))))
 (let ((?x1712 (ite (= 2 ?x241) (ite $x445 31 31) (ite (= 1 ?x241) (ite $x445 0 0) 0))))
 (let ((?x2756 (ite (= 4 ?x241) (ite $x445 91 90) (ite (= 3 ?x241) (ite $x445 60 59) ?x1712))))
 (let ((?x650 (ite (= 6 ?x241) (ite $x445 152 151) (ite (= 5 ?x241) (ite $x445 121 120) ?x2756))))
 (let ((?x1215 (ite (= 8 ?x241) (ite $x445 213 212) (ite (= 7 ?x241) (ite $x445 182 181) ?x650))))
 (let ((?x1536 (ite (= 10 ?x241) (ite $x445 274 273) (ite (= 9 ?x241) (ite $x445 244 243) ?x1215))))
 (let ((?x2958 (ite (= 12 ?x241) (ite $x445 335 334) (ite (= 11 ?x241) (ite $x445 305 304) ?x1536))))
 (let ((?x264 (+ (* 365 (- (+ ?x98 (+ 0 (div ?x500 12))) 1)) (div (- (+ ?x98 (+ 0 (div ?x500 12))) 1) 4))))
 (let ((?x2374 (+ (- ?x264 (div (- (+ ?x98 (+ 0 (div ?x500 12))) 1) 100)) (div (- (+ ?x98 (+ 0 (div ?x500 12))) 1) 400))))
 (let ((?x260 (+ (+ (- (+ (+ ?x2374 ?x2958) (- ?x1252 1)) 730179) 0) 730179)))
 (let ((?x1900 (mod ?x260 146097)))
 (let ((?x2534 (div ?x1900 36524)))
 (let ((?x1277 (ite (<= 4 ?x2534) 3 ?x2534)))
 (let ((?x268 (- ?x1900 (* ?x1277 36524))))
 (let ((?x367 (mod ?x268 1461)))
 (let ((?x440 (div ?x367 365)))
 (let ((?x3332 (ite (<= 4 ?x440) 3 ?x440)))
 (let ((?x198 (+ (+ (* (div ?x260 146097) 400) (* ?x1277 100)) (* (div ?x268 1461) 4))))
 (let ((?x359 (+ (+ ?x198 ?x3332) 1)))
 (let (($x3152 (or (and (= (mod ?x359 4) 0) (and (distinct (mod ?x359 100) 0) true)) (= (mod ?x359 400) 0))))
 (let ((?x3408 (ite $x3152 31 31)))
 (let ((?x317 (- ?x367 (* ?x3332 365))))
 (let (($x2941 (>= ?x317 ?x3408)))
 (let ((?x752 (ite $x3152 60 59)))
 (let (($x301 (>= ?x317 ?x752)))
 (let ((?x2335 (ite $x3152 91 90)))
 (let (($x1721 (>= ?x317 ?x2335)))
 (let ((?x2161 (ite $x3152 121 120)))
 (let (($x862 (>= ?x317 ?x2161)))
 (let ((?x2981 (ite $x862 5 (ite $x1721 4 (ite $x301 3 (ite $x2941 2 1))))))
 (let ((?x657 (ite $x3152 152 151)))
 (let (($x709 (>= ?x317 ?x657)))
 (let ((?x2172 (ite $x3152 182 181)))
 (let (($x809 (>= ?x317 ?x2172)))
 (let ((?x425 (ite $x3152 213 212)))
 (let (($x1725 (>= ?x317 ?x425)))
 (let ((?x2720 (ite $x3152 244 243)))
 (let (($x375 (>= ?x317 ?x2720)))
 (let ((?x400 (ite $x375 9 (ite $x1725 8 (ite $x809 7 (ite $x709 6 ?x2981))))))
 (let ((?x52 (ite $x3152 274 273)))
 (let (($x429 (>= ?x317 ?x52)))
 (let ((?x2902 (ite $x3152 305 304)))
 (let (($x337 (>= ?x317 ?x2902)))
 (let ((?x898 (ite $x3152 335 334)))
 (let (($x2678 (>= ?x317 ?x898)))
 (let (($x449 (= 0 0)))
 (let ((?x203 (ite $x449 ?x241 (ite $x2678 12 (ite $x337 11 (ite $x429 10 ?x400))))))
 (= x_plus_month ?x203)))))))))))))))))))))))))))))))))))))))))))))))))))))))))))))))))))))))))))))))))))))))))))))))))))))
(assert
 (let ((?x730 (+ x_epoch 730179)))
 (let ((?x557 (mod ?x730 146097)))
 (let ((?x512 (div ?x557 36524)))
 (let ((?x218 (ite (<= 4 ?x512) 3 ?x512)))
 (let ((?x685 (- ?x557 (* ?x218 36524))))
 (let ((?x414 (mod ?x685 1461)))
 (let ((?x263 (div ?x414 365)))
 (let ((?x118 (ite (<= 4 ?x263) 3 ?x263)))
 (let ((?x410 (+ (+ (* (div ?x730 146097) 400) (* ?x218 100)) (* (div ?x685 1461) 4))))
 (let ((?x98 (+ (+ ?x410 ?x118) 1)))
 (let (($x339 (or (and (= (mod ?x98 4) 0) (and (distinct (mod ?x98 100) 0) true)) (= (mod ?x98 400) 0))))
 (let ((?x406 (- ?x414 (* ?x118 365))))
 (let ((?x465 (ite $x339 31 31)))
 (let (($x463 (>= ?x406 ?x465)))
 (let ((?x645 (ite $x463 (+ (- ?x406 ?x465) 1) (+ (- ?x406 (ite $x339 0 0)) 1))))
 (let ((?x729 (ite $x339 60 59)))
 (let (($x810 (>= ?x406 ?x729)))
 (let ((?x435 (ite $x339 91 90)))
 (let (($x673 (>= ?x406 ?x435)))
 (let ((?x701 (ite $x673 (+ (- ?x406 ?x435) 1) (ite $x810 (+ (- ?x406 ?x729) 1) ?x645))))
 (let ((?x1415 (ite $x339 121 120)))
 (let (($x451 (>= ?x406 ?x1415)))
 (let ((?x208 (ite $x339 152 151)))
 (let (($x325 (>= ?x406 ?x208)))
 (let ((?x175 (ite $x325 (+ (- ?x406 ?x208) 1) (ite $x451 (+ (- ?x406 ?x1415) 1) ?x701))))
 (let ((?x363 (ite $x339 182 181)))
 (let (($x320 (>= ?x406 ?x363)))
 (let ((?x508 (ite $x339 213 212)))
 (let (($x120 (>= ?x406 ?x508)))
 (let ((?x541 (ite $x120 (+ (- ?x406 ?x508) 1) (ite $x320 (+ (- ?x406 ?x363) 1) ?x175))))
 (let ((?x738 (ite $x339 244 243)))
 (let (($x434 (>= ?x406 ?x738)))
 (let ((?x452 (ite $x339 274 273)))
 (let (($x1015 (>= ?x406 ?x452)))
 (let ((?x532 (ite $x1015 (+ (- ?x406 ?x452) 1) (ite $x434 (+ (- ?x406 ?x738) 1) ?x541))))
 (let ((?x134 (ite $x339 305 304)))
 (let (($x272 (>= ?x406 ?x134)))
 (let ((?x758 (ite $x339 335 334)))
 (let (($x692 (>= ?x406 ?x758)))
 (let ((?x2113 (ite $x692 (+ (- ?x406 ?x758) 1) (ite $x272 (+ (- ?x406 ?x134) 1) ?x532))))
 (let ((?x2599 (+ (* 0 12) 1)))
 (let ((?x250 (ite $x451 5 (ite $x673 4 (ite $x810 3 (ite $x463 2 1))))))
 (let ((?x2483 (ite $x434 9 (ite $x120 8 (ite $x320 7 (ite $x325 6 ?x250))))))
 (let ((?x516 (ite $x692 12 (ite $x272 11 (ite $x1015 10 ?x2483)))))
 (let ((?x524 (+ ?x516 ?x2599)))
 (let ((?x500 (- ?x524 1)))
 (let ((?x241 (+ (mod ?x500 12) 1)))
 (let ((?x523 (ite (or (= ?x241 4) (= ?x241 6) (= ?x241 9) (= ?x241 11)) 30 31)))
 (let (($x2372 (and (= (mod (+ ?x98 (+ 0 (div ?x500 12))) 4) 0) (and (distinct (mod (+ ?x98 (+ 0 (div ?x500 12))) 100) 0) true))))
 (let (($x445 (or $x2372 (= (mod (+ ?x98 (+ 0 (div ?x500 12))) 400) 0))))
 (let ((?x663 (ite (= ?x241 2) (ite $x445 29 28) ?x523)))
 (let ((?x194 (ite (> 1 ?x2113) 1 (ite (> ?x2113 ?x663) ?x663 ?x2113))))
 (let ((?x1252 (ite (> 1 ?x194) 1 (ite (> ?x194 ?x663) ?x663 ?x194))))
 (let ((?x1712 (ite (= 2 ?x241) (ite $x445 31 31) (ite (= 1 ?x241) (ite $x445 0 0) 0))))
 (let ((?x2756 (ite (= 4 ?x241) (ite $x445 91 90) (ite (= 3 ?x241) (ite $x445 60 59) ?x1712))))
 (let ((?x650 (ite (= 6 ?x241) (ite $x445 152 151) (ite (= 5 ?x241) (ite $x445 121 120) ?x2756))))
 (let ((?x1215 (ite (= 8 ?x241) (ite $x445 213 212) (ite (= 7 ?x241) (ite $x445 182 181) ?x650))))
 (let ((?x1536 (ite (= 10 ?x241) (ite $x445 274 273) (ite (= 9 ?x241) (ite $x445 244 243) ?x1215))))
 (let ((?x2958 (ite (= 12 ?x241) (ite $x445 335 334) (ite (= 11 ?x241) (ite $x445 305 304) ?x1536))))
 (let ((?x264 (+ (* 365 (- (+ ?x98 (+ 0 (div ?x500 12))) 1)) (div (- (+ ?x98 (+ 0 (div ?x500 12))) 1) 4))))
 (let ((?x2374 (+ (- ?x264 (div (- (+ ?x98 (+ 0 (div ?x500 12))) 1) 100)) (div (- (+ ?x98 (+ 0 (div ?x500 12))) 1) 400))))
 (let ((?x260 (+ (+ (- (+ (+ ?x2374 ?x2958) (- ?x1252 1)) 730179) 0) 730179)))
 (let ((?x1900 (mod ?x260 146097)))
 (let ((?x2534 (div ?x1900 36524)))
 (let ((?x1277 (ite (<= 4 ?x2534) 3 ?x2534)))
 (let ((?x268 (- ?x1900 (* ?x1277 36524))))
 (let ((?x367 (mod ?x268 1461)))
 (let ((?x440 (div ?x367 365)))
 (let ((?x3332 (ite (<= 4 ?x440) 3 ?x440)))
 (let ((?x198 (+ (+ (* (div ?x260 146097) 400) (* ?x1277 100)) (* (div ?x268 1461) 4))))
 (let ((?x359 (+ (+ ?x198 ?x3332) 1)))
 (let (($x3152 (or (and (= (mod ?x359 4) 0) (and (distinct (mod ?x359 100) 0) true)) (= (mod ?x359 400) 0))))
 (let ((?x317 (- ?x367 (* ?x3332 365))))
 (let ((?x3408 (ite $x3152 31 31)))
 (let (($x2941 (>= ?x317 ?x3408)))
 (let ((?x1201 (ite $x2941 (+ (- ?x317 ?x3408) 1) (+ (- ?x317 (ite $x3152 0 0)) 1))))
 (let ((?x752 (ite $x3152 60 59)))
 (let (($x301 (>= ?x317 ?x752)))
 (let ((?x2335 (ite $x3152 91 90)))
 (let (($x1721 (>= ?x317 ?x2335)))
 (let ((?x477 (ite $x1721 (+ (- ?x317 ?x2335) 1) (ite $x301 (+ (- ?x317 ?x752) 1) ?x1201))))
 (let ((?x2161 (ite $x3152 121 120)))
 (let (($x862 (>= ?x317 ?x2161)))
 (let ((?x657 (ite $x3152 152 151)))
 (let (($x709 (>= ?x317 ?x657)))
 (let ((?x2610 (ite $x709 (+ (- ?x317 ?x657) 1) (ite $x862 (+ (- ?x317 ?x2161) 1) ?x477))))
 (let ((?x2172 (ite $x3152 182 181)))
 (let (($x809 (>= ?x317 ?x2172)))
 (let ((?x425 (ite $x3152 213 212)))
 (let (($x1725 (>= ?x317 ?x425)))
 (let ((?x1106 (ite $x1725 (+ (- ?x317 ?x425) 1) (ite $x809 (+ (- ?x317 ?x2172) 1) ?x2610))))
 (let ((?x2720 (ite $x3152 244 243)))
 (let (($x375 (>= ?x317 ?x2720)))
 (let ((?x52 (ite $x3152 274 273)))
 (let (($x429 (>= ?x317 ?x52)))
 (let ((?x2593 (ite $x429 (+ (- ?x317 ?x52) 1) (ite $x375 (+ (- ?x317 ?x2720) 1) ?x1106))))
 (let ((?x2902 (ite $x3152 305 304)))
 (let (($x337 (>= ?x317 ?x2902)))
 (let ((?x898 (ite $x3152 335 334)))
 (let (($x2678 (>= ?x317 ?x898)))
 (let ((?x191 (ite $x2678 (+ (- ?x317 ?x898) 1) (ite $x337 (+ (- ?x317 ?x2902) 1) ?x2593))))
 (let (($x449 (= 0 0)))
 (let ((?x1982 (ite $x449 ?x1252 ?x191)))
 (= x_plus_day ?x1982)))))))))))))))))))))))))))))))))))))))))))))))))))))))))))))))))))))))))))))))))))))))))))))))))))))))))
(assert
 (= x_plus_epoch 7304))
(assert
 (>= y_plus_epoch (- 36584)))
(assert
 (<= y_plus_epoch 36829))
(assert
 (let (($x2630 (= y_plus_month 11)))
 (let (($x3040 (= y_plus_month 9)))
 (let (($x1233 (= y_plus_month 6)))
 (let (($x1332 (= y_plus_month 4)))
 (let ((?x3287 (ite (or $x1332 $x1233 $x3040 $x2630) 30 31)))
 (let (($x2200 (= (mod y_plus_year 400) 0)))
 (let (($x2700 (= (mod y_plus_year 4) 0)))
 (let (($x1506 (or (and $x2700 (and (distinct (mod y_plus_year 100) 0) true)) $x2200)))
 (let (($x1268 (= y_plus_month 2)))
 (let (($x1024 (>= y_plus_day 1)))
 (let (($x1589 (<= y_plus_month 12)))
 (let (($x927 (>= y_plus_month 1)))
 (let (($x1006 (<= y_plus_year 2100)))
 (let (($x2475 (>= y_plus_year 1900)))
 (and $x2475 $x1006 $x927 $x1589 $x1024 (<= y_plus_day (ite $x1268 (ite $x1506 29 28) ?x3287))))))))))))))))))
(assert
 (let (($x2200 (= (mod y_plus_year 400) 0)))
 (let (($x2700 (= (mod y_plus_year 4) 0)))
 (let (($x1506 (or (and $x2700 (and (distinct (mod y_plus_year 100) 0) true)) $x2200)))
 (let ((?x30 (ite (= 2 y_plus_month) (ite $x1506 31 31) (ite (= 1 y_plus_month) (ite $x1506 0 0) 0))))
 (let ((?x2268 (ite (= 4 y_plus_month) (ite $x1506 91 90) (ite (= 3 y_plus_month) (ite $x1506 60 59) ?x30))))
 (let ((?x1603 (ite (= 6 y_plus_month) (ite $x1506 152 151) (ite (= 5 y_plus_month) (ite $x1506 121 120) ?x2268))))
 (let ((?x1424 (ite (= 8 y_plus_month) (ite $x1506 213 212) (ite (= 7 y_plus_month) (ite $x1506 182 181) ?x1603))))
 (let ((?x789 (ite (= 10 y_plus_month) (ite $x1506 274 273) (ite (= 9 y_plus_month) (ite $x1506 244 243) ?x1424))))
 (let ((?x2285 (ite (= 12 y_plus_month) (ite $x1506 335 334) (ite (= 11 y_plus_month) (ite $x1506 305 304) ?x789))))
 (let ((?x2698 (+ (* 365 (- y_plus_year 1)) (div (- y_plus_year 1) 4))))
 (let ((?x1663 (+ (- ?x2698 (div (- y_plus_year 1) 100)) (div (- y_plus_year 1) 400))))
 (= y_plus_epoch (- (+ (+ ?x1663 ?x2285) (- y_plus_day 1)) 730179))))))))))))))
(assert
 (let ((?x1792 (+ y_epoch 730179)))
 (let ((?x3448 (mod ?x1792 146097)))
 (let ((?x2853 (div ?x3448 36524)))
 (let ((?x2260 (ite (<= 4 ?x2853) 3 ?x2853)))
 (let ((?x2413 (- ?x3448 (* ?x2260 36524))))
 (let ((?x150 (mod ?x2413 1461)))
 (let ((?x417 (div ?x150 365)))
 (let ((?x271 (ite (<= 4 ?x417) 3 ?x417)))
 (let ((?x2684 (+ (+ (* (div ?x1792 146097) 400) (* ?x2260 100)) (* (div ?x2413 1461) 4))))
 (let ((?x334 (+ (+ ?x2684 ?x271) 1)))
 (let (($x3096 (or (and (= (mod ?x334 4) 0) (and (distinct (mod ?x334 100) 0) true)) (= (mod ?x334 400) 0))))
 (let ((?x1930 (- ?x150 (* ?x271 365))))
 (let ((?x1097 (ite $x3096 31 31)))
 (let (($x313 (>= ?x1930 ?x1097)))
 (let ((?x340 (ite $x313 (+ (- ?x1930 ?x1097) 1) (+ (- ?x1930 (ite $x3096 0 0)) 1))))
 (let ((?x2731 (ite $x3096 60 59)))
 (let (($x2949 (>= ?x1930 ?x2731)))
 (let ((?x1961 (ite $x3096 91 90)))
 (let (($x438 (>= ?x1930 ?x1961)))
 (let ((?x292 (ite $x438 (+ (- ?x1930 ?x1961) 1) (ite $x2949 (+ (- ?x1930 ?x2731) 1) ?x340))))
 (let ((?x2203 (ite $x3096 121 120)))
 (let (($x309 (>= ?x1930 ?x2203)))
 (let ((?x2037 (ite $x3096 152 151)))
 (let (($x431 (>= ?x1930 ?x2037)))
 (let ((?x769 (ite $x431 (+ (- ?x1930 ?x2037) 1) (ite $x309 (+ (- ?x1930 ?x2203) 1) ?x292))))
 (let ((?x570 (ite $x3096 182 181)))
 (let (($x659 (>= ?x1930 ?x570)))
 (let ((?x332 (ite $x3096 213 212)))
 (let (($x461 (>= ?x1930 ?x332)))
 (let ((?x608 (ite $x461 (+ (- ?x1930 ?x332) 1) (ite $x659 (+ (- ?x1930 ?x570) 1) ?x769))))
 (let ((?x592 (ite $x3096 244 243)))
 (let (($x3333 (>= ?x1930 ?x592)))
 (let ((?x3023 (ite $x3096 274 273)))
 (let (($x143 (>= ?x1930 ?x3023)))
 (let ((?x360 (ite $x143 (+ (- ?x1930 ?x3023) 1) (ite $x3333 (+ (- ?x1930 ?x592) 1) ?x608))))
 (let ((?x689 (ite $x3096 305 304)))
 (let (($x540 (>= ?x1930 ?x689)))
 (let ((?x176 (ite $x3096 335 334)))
 (let (($x1891 (>= ?x1930 ?x176)))
 (let ((?x3114 (ite $x1891 (+ (- ?x1930 ?x176) 1) (ite $x540 (+ (- ?x1930 ?x689) 1) ?x360))))
 (let ((?x2599 (+ (* 0 12) 1)))
 (let ((?x2879 (ite $x309 5 (ite $x438 4 (ite $x2949 3 (ite $x313 2 1))))))
 (let ((?x585 (ite $x3333 9 (ite $x461 8 (ite $x659 7 (ite $x431 6 ?x2879))))))
 (let ((?x2855 (ite $x1891 12 (ite $x540 11 (ite $x143 10 ?x585)))))
 (let ((?x2280 (+ ?x2855 ?x2599)))
 (let ((?x3041 (- ?x2280 1)))
 (let ((?x2928 (+ (mod ?x3041 12) 1)))
 (let ((?x3271 (ite (or (= ?x2928 4) (= ?x2928 6) (= ?x2928 9) (= ?x2928 11)) 30 31)))
 (let (($x1244 (and (= (mod (+ ?x334 (+ 0 (div ?x3041 12))) 4) 0) (and (distinct (mod (+ ?x334 (+ 0 (div ?x3041 12))) 100) 0) true))))
 (let (($x3160 (or $x1244 (= (mod (+ ?x334 (+ 0 (div ?x3041 12))) 400) 0))))
 (let ((?x2152 (ite (= ?x2928 2) (ite $x3160 29 28) ?x3271)))
 (let ((?x3421 (ite (> 1 ?x3114) 1 (ite (> ?x3114 ?x2152) ?x2152 ?x3114))))
 (let ((?x1365 (ite (> 1 ?x3421) 1 (ite (> ?x3421 ?x2152) ?x2152 ?x3421))))
 (let ((?x86 (ite (= 2 ?x2928) (ite $x3160 31 31) (ite (= 1 ?x2928) (ite $x3160 0 0) 0))))
 (let ((?x672 (ite (= 4 ?x2928) (ite $x3160 91 90) (ite (= 3 ?x2928) (ite $x3160 60 59) ?x86))))
 (let ((?x491 (ite (= 6 ?x2928) (ite $x3160 152 151) (ite (= 5 ?x2928) (ite $x3160 121 120) ?x672))))
 (let ((?x1939 (ite (= 8 ?x2928) (ite $x3160 213 212) (ite (= 7 ?x2928) (ite $x3160 182 181) ?x491))))
 (let ((?x430 (ite (= 10 ?x2928) (ite $x3160 274 273) (ite (= 9 ?x2928) (ite $x3160 244 243) ?x1939))))
 (let ((?x2777 (ite (= 12 ?x2928) (ite $x3160 335 334) (ite (= 11 ?x2928) (ite $x3160 305 304) ?x430))))
 (let ((?x2046 (+ (* 365 (- (+ ?x334 (+ 0 (div ?x3041 12))) 1)) (div (- (+ ?x334 (+ 0 (div ?x3041 12))) 1) 4))))
 (let ((?x1552 (+ (- ?x2046 (div (- (+ ?x334 (+ 0 (div ?x3041 12))) 1) 100)) (div (- (+ ?x334 (+ 0 (div ?x3041 12))) 1) 400))))
 (let ((?x2108 (+ (+ (- (+ (+ ?x1552 ?x2777) (- ?x1365 1)) 730179) 0) 730179)))
 (let ((?x847 (mod ?x2108 146097)))
 (let ((?x444 (div ?x847 36524)))
 (let ((?x702 (ite (<= 4 ?x444) 3 ?x444)))
 (let ((?x391 (- ?x847 (* ?x702 36524))))
 (let ((?x2517 (mod ?x391 1461)))
 (let ((?x2104 (div ?x2517 365)))
 (let ((?x653 (ite (<= 4 ?x2104) 3 ?x2104)))
 (let ((?x2616 (+ (+ (* (div ?x2108 146097) 400) (* ?x702 100)) (* (div ?x391 1461) 4))))
 (let ((?x3455 (+ (+ ?x2616 ?x653) 1)))
 (let ((?x152 (+ 0 (div ?x3041 12))))
 (let ((?x1399 (+ ?x334 ?x152)))
 (let (($x449 (= 0 0)))
 (let ((?x2921 (ite $x449 ?x1399 ?x3455)))
 (= y_plus_year ?x2921)))))))))))))))))))))))))))))))))))))))))))))))))))))))))))))))))))))))))))))
(assert
 (let ((?x1792 (+ y_epoch 730179)))
 (let ((?x3448 (mod ?x1792 146097)))
 (let ((?x2853 (div ?x3448 36524)))
 (let ((?x2260 (ite (<= 4 ?x2853) 3 ?x2853)))
 (let ((?x2413 (- ?x3448 (* ?x2260 36524))))
 (let ((?x150 (mod ?x2413 1461)))
 (let ((?x417 (div ?x150 365)))
 (let ((?x271 (ite (<= 4 ?x417) 3 ?x417)))
 (let ((?x2684 (+ (+ (* (div ?x1792 146097) 400) (* ?x2260 100)) (* (div ?x2413 1461) 4))))
 (let ((?x334 (+ (+ ?x2684 ?x271) 1)))
 (let (($x3096 (or (and (= (mod ?x334 4) 0) (and (distinct (mod ?x334 100) 0) true)) (= (mod ?x334 400) 0))))
 (let ((?x1930 (- ?x150 (* ?x271 365))))
 (let ((?x1097 (ite $x3096 31 31)))
 (let (($x313 (>= ?x1930 ?x1097)))
 (let ((?x340 (ite $x313 (+ (- ?x1930 ?x1097) 1) (+ (- ?x1930 (ite $x3096 0 0)) 1))))
 (let ((?x2731 (ite $x3096 60 59)))
 (let (($x2949 (>= ?x1930 ?x2731)))
 (let ((?x1961 (ite $x3096 91 90)))
 (let (($x438 (>= ?x1930 ?x1961)))
 (let ((?x292 (ite $x438 (+ (- ?x1930 ?x1961) 1) (ite $x2949 (+ (- ?x1930 ?x2731) 1) ?x340))))
 (let ((?x2203 (ite $x3096 121 120)))
 (let (($x309 (>= ?x1930 ?x2203)))
 (let ((?x2037 (ite $x3096 152 151)))
 (let (($x431 (>= ?x1930 ?x2037)))
 (let ((?x769 (ite $x431 (+ (- ?x1930 ?x2037) 1) (ite $x309 (+ (- ?x1930 ?x2203) 1) ?x292))))
 (let ((?x570 (ite $x3096 182 181)))
 (let (($x659 (>= ?x1930 ?x570)))
 (let ((?x332 (ite $x3096 213 212)))
 (let (($x461 (>= ?x1930 ?x332)))
 (let ((?x608 (ite $x461 (+ (- ?x1930 ?x332) 1) (ite $x659 (+ (- ?x1930 ?x570) 1) ?x769))))
 (let ((?x592 (ite $x3096 244 243)))
 (let (($x3333 (>= ?x1930 ?x592)))
 (let ((?x3023 (ite $x3096 274 273)))
 (let (($x143 (>= ?x1930 ?x3023)))
 (let ((?x360 (ite $x143 (+ (- ?x1930 ?x3023) 1) (ite $x3333 (+ (- ?x1930 ?x592) 1) ?x608))))
 (let ((?x689 (ite $x3096 305 304)))
 (let (($x540 (>= ?x1930 ?x689)))
 (let ((?x176 (ite $x3096 335 334)))
 (let (($x1891 (>= ?x1930 ?x176)))
 (let ((?x3114 (ite $x1891 (+ (- ?x1930 ?x176) 1) (ite $x540 (+ (- ?x1930 ?x689) 1) ?x360))))
 (let ((?x2599 (+ (* 0 12) 1)))
 (let ((?x2879 (ite $x309 5 (ite $x438 4 (ite $x2949 3 (ite $x313 2 1))))))
 (let ((?x585 (ite $x3333 9 (ite $x461 8 (ite $x659 7 (ite $x431 6 ?x2879))))))
 (let ((?x2855 (ite $x1891 12 (ite $x540 11 (ite $x143 10 ?x585)))))
 (let ((?x2280 (+ ?x2855 ?x2599)))
 (let ((?x3041 (- ?x2280 1)))
 (let ((?x2928 (+ (mod ?x3041 12) 1)))
 (let ((?x3271 (ite (or (= ?x2928 4) (= ?x2928 6) (= ?x2928 9) (= ?x2928 11)) 30 31)))
 (let (($x1244 (and (= (mod (+ ?x334 (+ 0 (div ?x3041 12))) 4) 0) (and (distinct (mod (+ ?x334 (+ 0 (div ?x3041 12))) 100) 0) true))))
 (let (($x3160 (or $x1244 (= (mod (+ ?x334 (+ 0 (div ?x3041 12))) 400) 0))))
 (let ((?x2152 (ite (= ?x2928 2) (ite $x3160 29 28) ?x3271)))
 (let ((?x3421 (ite (> 1 ?x3114) 1 (ite (> ?x3114 ?x2152) ?x2152 ?x3114))))
 (let ((?x1365 (ite (> 1 ?x3421) 1 (ite (> ?x3421 ?x2152) ?x2152 ?x3421))))
 (let ((?x86 (ite (= 2 ?x2928) (ite $x3160 31 31) (ite (= 1 ?x2928) (ite $x3160 0 0) 0))))
 (let ((?x672 (ite (= 4 ?x2928) (ite $x3160 91 90) (ite (= 3 ?x2928) (ite $x3160 60 59) ?x86))))
 (let ((?x491 (ite (= 6 ?x2928) (ite $x3160 152 151) (ite (= 5 ?x2928) (ite $x3160 121 120) ?x672))))
 (let ((?x1939 (ite (= 8 ?x2928) (ite $x3160 213 212) (ite (= 7 ?x2928) (ite $x3160 182 181) ?x491))))
 (let ((?x430 (ite (= 10 ?x2928) (ite $x3160 274 273) (ite (= 9 ?x2928) (ite $x3160 244 243) ?x1939))))
 (let ((?x2777 (ite (= 12 ?x2928) (ite $x3160 335 334) (ite (= 11 ?x2928) (ite $x3160 305 304) ?x430))))
 (let ((?x2046 (+ (* 365 (- (+ ?x334 (+ 0 (div ?x3041 12))) 1)) (div (- (+ ?x334 (+ 0 (div ?x3041 12))) 1) 4))))
 (let ((?x1552 (+ (- ?x2046 (div (- (+ ?x334 (+ 0 (div ?x3041 12))) 1) 100)) (div (- (+ ?x334 (+ 0 (div ?x3041 12))) 1) 400))))
 (let ((?x2108 (+ (+ (- (+ (+ ?x1552 ?x2777) (- ?x1365 1)) 730179) 0) 730179)))
 (let ((?x847 (mod ?x2108 146097)))
 (let ((?x444 (div ?x847 36524)))
 (let ((?x702 (ite (<= 4 ?x444) 3 ?x444)))
 (let ((?x391 (- ?x847 (* ?x702 36524))))
 (let ((?x2517 (mod ?x391 1461)))
 (let ((?x2104 (div ?x2517 365)))
 (let ((?x653 (ite (<= 4 ?x2104) 3 ?x2104)))
 (let ((?x2616 (+ (+ (* (div ?x2108 146097) 400) (* ?x702 100)) (* (div ?x391 1461) 4))))
 (let ((?x3455 (+ (+ ?x2616 ?x653) 1)))
 (let (($x1639 (or (and (= (mod ?x3455 4) 0) (and (distinct (mod ?x3455 100) 0) true)) (= (mod ?x3455 400) 0))))
 (let ((?x2883 (ite $x1639 31 31)))
 (let ((?x1739 (- ?x2517 (* ?x653 365))))
 (let (($x1979 (>= ?x1739 ?x2883)))
 (let ((?x1396 (ite $x1639 60 59)))
 (let (($x1406 (>= ?x1739 ?x1396)))
 (let ((?x428 (ite $x1639 91 90)))
 (let (($x2145 (>= ?x1739 ?x428)))
 (let ((?x1320 (ite $x1639 121 120)))
 (let (($x2887 (>= ?x1739 ?x1320)))
 (let ((?x3342 (ite $x2887 5 (ite $x2145 4 (ite $x1406 3 (ite $x1979 2 1))))))
 (let ((?x243 (ite $x1639 152 151)))
 (let (($x2960 (>= ?x1739 ?x243)))
 (let ((?x103 (ite $x1639 182 181)))
 (let (($x2013 (>= ?x1739 ?x103)))
 (let ((?x2713 (ite $x1639 213 212)))
 (let (($x1631 (>= ?x1739 ?x2713)))
 (let ((?x2699 (ite $x1639 244 243)))
 (let (($x2366 (>= ?x1739 ?x2699)))
 (let ((?x2504 (ite $x2366 9 (ite $x1631 8 (ite $x2013 7 (ite $x2960 6 ?x3342))))))
 (let ((?x3277 (ite $x1639 274 273)))
 (let (($x528 (>= ?x1739 ?x3277)))
 (let ((?x1798 (ite $x1639 305 304)))
 (let (($x1747 (>= ?x1739 ?x1798)))
 (let ((?x401 (ite $x1639 335 334)))
 (let (($x1560 (>= ?x1739 ?x401)))
 (let (($x449 (= 0 0)))
 (let ((?x3243 (ite $x449 ?x2928 (ite $x1560 12 (ite $x1747 11 (ite $x528 10 ?x2504))))))
 (= y_plus_month ?x3243)))))))))))))))))))))))))))))))))))))))))))))))))))))))))))))))))))))))))))))))))))))))))))))))))))))
(assert
 (let ((?x1792 (+ y_epoch 730179)))
 (let ((?x3448 (mod ?x1792 146097)))
 (let ((?x2853 (div ?x3448 36524)))
 (let ((?x2260 (ite (<= 4 ?x2853) 3 ?x2853)))
 (let ((?x2413 (- ?x3448 (* ?x2260 36524))))
 (let ((?x150 (mod ?x2413 1461)))
 (let ((?x417 (div ?x150 365)))
 (let ((?x271 (ite (<= 4 ?x417) 3 ?x417)))
 (let ((?x2684 (+ (+ (* (div ?x1792 146097) 400) (* ?x2260 100)) (* (div ?x2413 1461) 4))))
 (let ((?x334 (+ (+ ?x2684 ?x271) 1)))
 (let (($x3096 (or (and (= (mod ?x334 4) 0) (and (distinct (mod ?x334 100) 0) true)) (= (mod ?x334 400) 0))))
 (let ((?x1930 (- ?x150 (* ?x271 365))))
 (let ((?x1097 (ite $x3096 31 31)))
 (let (($x313 (>= ?x1930 ?x1097)))
 (let ((?x340 (ite $x313 (+ (- ?x1930 ?x1097) 1) (+ (- ?x1930 (ite $x3096 0 0)) 1))))
 (let ((?x2731 (ite $x3096 60 59)))
 (let (($x2949 (>= ?x1930 ?x2731)))
 (let ((?x1961 (ite $x3096 91 90)))
 (let (($x438 (>= ?x1930 ?x1961)))
 (let ((?x292 (ite $x438 (+ (- ?x1930 ?x1961) 1) (ite $x2949 (+ (- ?x1930 ?x2731) 1) ?x340))))
 (let ((?x2203 (ite $x3096 121 120)))
 (let (($x309 (>= ?x1930 ?x2203)))
 (let ((?x2037 (ite $x3096 152 151)))
 (let (($x431 (>= ?x1930 ?x2037)))
 (let ((?x769 (ite $x431 (+ (- ?x1930 ?x2037) 1) (ite $x309 (+ (- ?x1930 ?x2203) 1) ?x292))))
 (let ((?x570 (ite $x3096 182 181)))
 (let (($x659 (>= ?x1930 ?x570)))
 (let ((?x332 (ite $x3096 213 212)))
 (let (($x461 (>= ?x1930 ?x332)))
 (let ((?x608 (ite $x461 (+ (- ?x1930 ?x332) 1) (ite $x659 (+ (- ?x1930 ?x570) 1) ?x769))))
 (let ((?x592 (ite $x3096 244 243)))
 (let (($x3333 (>= ?x1930 ?x592)))
 (let ((?x3023 (ite $x3096 274 273)))
 (let (($x143 (>= ?x1930 ?x3023)))
 (let ((?x360 (ite $x143 (+ (- ?x1930 ?x3023) 1) (ite $x3333 (+ (- ?x1930 ?x592) 1) ?x608))))
 (let ((?x689 (ite $x3096 305 304)))
 (let (($x540 (>= ?x1930 ?x689)))
 (let ((?x176 (ite $x3096 335 334)))
 (let (($x1891 (>= ?x1930 ?x176)))
 (let ((?x3114 (ite $x1891 (+ (- ?x1930 ?x176) 1) (ite $x540 (+ (- ?x1930 ?x689) 1) ?x360))))
 (let ((?x2599 (+ (* 0 12) 1)))
 (let ((?x2879 (ite $x309 5 (ite $x438 4 (ite $x2949 3 (ite $x313 2 1))))))
 (let ((?x585 (ite $x3333 9 (ite $x461 8 (ite $x659 7 (ite $x431 6 ?x2879))))))
 (let ((?x2855 (ite $x1891 12 (ite $x540 11 (ite $x143 10 ?x585)))))
 (let ((?x2280 (+ ?x2855 ?x2599)))
 (let ((?x3041 (- ?x2280 1)))
 (let ((?x2928 (+ (mod ?x3041 12) 1)))
 (let ((?x3271 (ite (or (= ?x2928 4) (= ?x2928 6) (= ?x2928 9) (= ?x2928 11)) 30 31)))
 (let (($x1244 (and (= (mod (+ ?x334 (+ 0 (div ?x3041 12))) 4) 0) (and (distinct (mod (+ ?x334 (+ 0 (div ?x3041 12))) 100) 0) true))))
 (let (($x3160 (or $x1244 (= (mod (+ ?x334 (+ 0 (div ?x3041 12))) 400) 0))))
 (let ((?x2152 (ite (= ?x2928 2) (ite $x3160 29 28) ?x3271)))
 (let ((?x3421 (ite (> 1 ?x3114) 1 (ite (> ?x3114 ?x2152) ?x2152 ?x3114))))
 (let ((?x1365 (ite (> 1 ?x3421) 1 (ite (> ?x3421 ?x2152) ?x2152 ?x3421))))
 (let ((?x86 (ite (= 2 ?x2928) (ite $x3160 31 31) (ite (= 1 ?x2928) (ite $x3160 0 0) 0))))
 (let ((?x672 (ite (= 4 ?x2928) (ite $x3160 91 90) (ite (= 3 ?x2928) (ite $x3160 60 59) ?x86))))
 (let ((?x491 (ite (= 6 ?x2928) (ite $x3160 152 151) (ite (= 5 ?x2928) (ite $x3160 121 120) ?x672))))
 (let ((?x1939 (ite (= 8 ?x2928) (ite $x3160 213 212) (ite (= 7 ?x2928) (ite $x3160 182 181) ?x491))))
 (let ((?x430 (ite (= 10 ?x2928) (ite $x3160 274 273) (ite (= 9 ?x2928) (ite $x3160 244 243) ?x1939))))
 (let ((?x2777 (ite (= 12 ?x2928) (ite $x3160 335 334) (ite (= 11 ?x2928) (ite $x3160 305 304) ?x430))))
 (let ((?x2046 (+ (* 365 (- (+ ?x334 (+ 0 (div ?x3041 12))) 1)) (div (- (+ ?x334 (+ 0 (div ?x3041 12))) 1) 4))))
 (let ((?x1552 (+ (- ?x2046 (div (- (+ ?x334 (+ 0 (div ?x3041 12))) 1) 100)) (div (- (+ ?x334 (+ 0 (div ?x3041 12))) 1) 400))))
 (let ((?x2108 (+ (+ (- (+ (+ ?x1552 ?x2777) (- ?x1365 1)) 730179) 0) 730179)))
 (let ((?x847 (mod ?x2108 146097)))
 (let ((?x444 (div ?x847 36524)))
 (let ((?x702 (ite (<= 4 ?x444) 3 ?x444)))
 (let ((?x391 (- ?x847 (* ?x702 36524))))
 (let ((?x2517 (mod ?x391 1461)))
 (let ((?x2104 (div ?x2517 365)))
 (let ((?x653 (ite (<= 4 ?x2104) 3 ?x2104)))
 (let ((?x2616 (+ (+ (* (div ?x2108 146097) 400) (* ?x702 100)) (* (div ?x391 1461) 4))))
 (let ((?x3455 (+ (+ ?x2616 ?x653) 1)))
 (let (($x1639 (or (and (= (mod ?x3455 4) 0) (and (distinct (mod ?x3455 100) 0) true)) (= (mod ?x3455 400) 0))))
 (let ((?x1739 (- ?x2517 (* ?x653 365))))
 (let ((?x2883 (ite $x1639 31 31)))
 (let (($x1979 (>= ?x1739 ?x2883)))
 (let ((?x2255 (ite $x1979 (+ (- ?x1739 ?x2883) 1) (+ (- ?x1739 (ite $x1639 0 0)) 1))))
 (let ((?x1396 (ite $x1639 60 59)))
 (let (($x1406 (>= ?x1739 ?x1396)))
 (let ((?x428 (ite $x1639 91 90)))
 (let (($x2145 (>= ?x1739 ?x428)))
 (let ((?x2327 (ite $x2145 (+ (- ?x1739 ?x428) 1) (ite $x1406 (+ (- ?x1739 ?x1396) 1) ?x2255))))
 (let ((?x1320 (ite $x1639 121 120)))
 (let (($x2887 (>= ?x1739 ?x1320)))
 (let ((?x243 (ite $x1639 152 151)))
 (let (($x2960 (>= ?x1739 ?x243)))
 (let ((?x3181 (ite $x2960 (+ (- ?x1739 ?x243) 1) (ite $x2887 (+ (- ?x1739 ?x1320) 1) ?x2327))))
 (let ((?x103 (ite $x1639 182 181)))
 (let (($x2013 (>= ?x1739 ?x103)))
 (let ((?x2713 (ite $x1639 213 212)))
 (let (($x1631 (>= ?x1739 ?x2713)))
 (let ((?x2999 (ite $x1631 (+ (- ?x1739 ?x2713) 1) (ite $x2013 (+ (- ?x1739 ?x103) 1) ?x3181))))
 (let ((?x2699 (ite $x1639 244 243)))
 (let (($x2366 (>= ?x1739 ?x2699)))
 (let ((?x3277 (ite $x1639 274 273)))
 (let (($x528 (>= ?x1739 ?x3277)))
 (let ((?x2730 (ite $x528 (+ (- ?x1739 ?x3277) 1) (ite $x2366 (+ (- ?x1739 ?x2699) 1) ?x2999))))
 (let ((?x1798 (ite $x1639 305 304)))
 (let (($x1747 (>= ?x1739 ?x1798)))
 (let ((?x401 (ite $x1639 335 334)))
 (let (($x1560 (>= ?x1739 ?x401)))
 (let ((?x2269 (ite $x1560 (+ (- ?x1739 ?x401) 1) (ite $x1747 (+ (- ?x1739 ?x1798) 1) ?x2730))))
 (let (($x449 (= 0 0)))
 (let ((?x975 (ite $x449 ?x1365 ?x2269)))
 (= y_plus_day ?x975)))))))))))))))))))))))))))))))))))))))))))))))))))))))))))))))))))))))))))))))))))))))))))))))))))))))))
(assert
 (= y_plus_epoch 6938))
(check-sat)
